data/benchmarks/bayes/75-15-7-q.cnf
p cnf 1065 1057
c weights 0.886171 0.11382899999999996 1 1 1 1 1 1 1 1 1 1 1 1 1 1 1 1 1 1 1 1 1 1 1 1 1 1 1 1 1 1 1 1 1 1 1 1 1 1 1 1 1 1 1 1 1 1 1 1 1 1 1 1 1 1 1 1 1 1 1 1 1 1 1 1 1 1 1 1 1 1 1 1 1 1 1 1 1 1 1 1 1 1 1 1 1 1 1 1 1 1 1 1 1 1 1 1 1 1 1 1 1 1 1 1 1 1 1 1 1 1 1 1 1 1 1 1 1 1 1 1 1 1 1 1 1 1 1 1 1 1 1 1 1 1 1 1 1 1 1 1 1 1 1 1 1 1 1 1 1 1 1 1 1 1 1 1 1 1 1 1 1 1 1 1 1 1 1 1 1 1 1 1 1 1 1 1 1 1 1 1 1 1 1 1 1 1 1 1 1 1 1 1 1 1 1 1 1 1 1 1 1 1 1 1 1 1 1 1 1 1 1 1 1 1 1 1 1 1 1 1 1 1 1 1 1 1 1 1 1 1 1 1 1 1 1 1 1 1 1 1 1 1 1 1 1 1 1 1 1 1 1 1 1 1 1 1 1 1 1 1 1 1 1 1 1 1 1 1 1 1 1 1 1 1 1 1 1 1 1 1 1 1 1 1 1 1 1 1 1 1 1 1 1 1 1 1 1 1 1 1 1 1 1 1 1 1 1 1 1 1 1 1 1 1 1 1 1 1 1 1 1 1 1 1 1 1 1 1 1 1 1 1 1 1 1 1 1 1 1 1 1 1 1 1 1 1 1 1 1 1 1 1 1 1 1 1 1 1 1 1 1 1 1 1 1 1 1 1 1 1 1 1 1 1 1 1 1 1 1 1 1 1 1 1 1 1 1 1 1 1 1 1 1 1 1 1 1 1 1 1 1 1 1 1 1 1 1 1 1 1 1 1 1 1 1 1 1 1 1 1 1 1 1 1 1 1 1 1 1 1 1 1 1 1 1 1 1 1 1 1 1 1 1 1 1 1 1 1 0.08518 0.91482 0.853906 0.14609399999999995 0.5 0.5 0.5 0.5 0.5 0.5 0.5 0.5 0.5 0.5 0.5 0.5 0.5 0.5 0.5 0.5 0.171182 0.828818 0.641294 0.35870599999999997 0.5 0.5 0.5 0.5 0.5 0.5 0.5 0.5 0.5 0.5 0.5 0.5 0.5 0.5 0.5 0.5 0.5 0.5 0.5 0.5 0.5 0.5 0.5 0.5 0.5 0.5 0.5 0.5 0.5 0.5 0.5 0.5 0.158814 0.841186 0.324622 0.675378 0.5 0.5 0.5 0.5 0.5 0.5 0.5 0.5 0.5 0.5 0.5 0.5 0.5 0.5 0.5 0.5 0.5 0.5 0.5 0.5 0.5 0.5 0.5 0.5 0.5 0.5 0.5 0.5 0.5 0.5 0.5 0.5 0.5 0.5 0.5 0.5 0.5 0.5 0.5 0.5 0.5 0.5 0.5 0.5 0.5 0.5 0.5 0.5 0.5 0.5 0.5 0.5 0.5 0.5 0.5 0.5 0.5 0.5 0.5 0.5 0.5 0.5 0.5 0.5 0.5 0.5 0.5 0.5 0.5 0.5 0.5 0.5 0.5 0.5 0.5 0.5 0.5 0.5 0.5 0.5 0.5 0.5 0.5 0.5 0.5 0.5 0.5 0.5 0.5 0.5 0.5 0.5 0.5 0.5 0.5 0.5 0.342806 0.6571940000000001 0.00413775 0.99586225 0.626524 0.37347600000000003 0.750001 0.24999899999999997 0.5 0.5 0.5 0.5 0.5 0.5 0.5 0.5 0.5 0.5 0.5 0.5 0.395109 0.6048910000000001 0.86312 0.13688 0.402111 0.597889 0.711017 0.288983 0.5 0.5 0.5 0.5 0.5 0.5 0.5 0.5 0.78356 0.21643999999999997 0.740991 0.25900900000000004 0.32946 0.67054 0.980696 0.019303999999999988 0.5 0.5 0.5 0.5 0.5 0.5 0.5 0.5 0.5 0.5 0.5 0.5 0.5 0.5 0.5 0.5 0.568186 0.43181400000000003 0.541715 0.45828500000000005 0.551273 0.448727 0.330368 0.669632 0.5 0.5 0.5 0.5 0.5 0.5 0.5 0.5 0.5 0.5 0.5 0.5 0.5 0.5 0.5 0.5 0.5 0.5 0.5 0.5 0.5 0.5 0.5 0.5 0.5 0.5 0.5 0.5 0.5 0.5 0.5 0.5 0.5 0.5 0.5 0.5 0.5 0.5 0.5 0.5 0.5 0.5 0.5 0.5 0.5 0.5 0.5 0.5 0.5 0.5 0.5 0.5 0.5 0.5 0.5 0.5 0.5 0.5 0.5 0.5 0.5 0.5 0.5 0.5 0.5 0.5 0.5 0.5 0.5 0.5 0.5 0.5 0.5 0.5 0.5 0.5 0.0599831 0.9400169 0.463823 0.536177 0.120093 0.879907 0.51544 0.48456 0.5 0.5 0.5 0.5 0.5 0.5 0.5 0.5 0.5 0.5 0.5 0.5 0.5 0.5 0.5 0.5 0.5 0.5 0.5 0.5 0.5 0.5 0.5 0.5 0.5 0.5 0.5 0.5 0.5 0.5 0.5 0.5 0.5 0.5 0.5 0.5 0.5 0.5 0.5 0.5 0.5 0.5 0.5 0.5 0.5 0.5 0.5 0.5 0.947344 0.052656000000000036 0.0583739 0.9416261 0.286898 0.713102 0.613681 0.38631899999999997 0.5 0.5 0.5 0.5 0.5 0.5 0.5 0.5 0.5 0.5 0.5 0.5 0.5 0.5 0.5 0.5 0.640916 0.35908399999999996 0.7782 0.2218 0.722088 0.27791200000000005 0.990716 0.009283999999999959 0.5 0.5 0.5 0.5 0.5 0.5 0.5 0.5 0.5 0.5 0.5 0.5 0.5 0.5 0.5 0.5 0.5 0.5 0.5 0.5 0.80742 0.19257999999999997 0.872739 0.12726099999999996 0.486699 0.513301 0.114395 0.885605 0.5 0.5 0.5 0.5 0.5 0.5 0.5 0.5 0.184018 0.815982 0.621441 0.378559 0.535986 0.46401400000000004 0.121951 0.878049 0.5 0.5 0.5 0.5 0.5 0.5 0.5 0.5 0.5 0.5 0.5 0.5 0.5 0.5 0.5 0.5 0.5 0.5 0.5 0.5 0.5 0.5 0.5 0.5 0.216288 0.783712 0.452472 0.547528 0.372864 0.627136 0.330683 0.6693169999999999 0.5 0.5 0.5 0.5 0.5 0.5 0.5 0.5 0.5 0.5 0.5 0.5 0.5 0.5 0.5 0.5 0.26018 0.7398199999999999 0.58231 0.41769 0.226477 0.773523 0.96936 0.03064 0.149147 0.850853 0.781693 0.21830700000000003 0.0297962 0.9702038 0.480275 0.519725 0.689618 0.31038200000000005 0.474168 0.5258320000000001 0.88231 0.11768999999999996 0.0984857 0.9015143 0.5 0.5 0.5 0.5 0.5 0.5 0.5 0.5 0.5 0.5 0.5 0.5 0.5 0.5 0.5 0.5 0.5 0.5 0.5 0.5 0.5 0.5 0.5 0.5 0.5 0.5 0.5 0.5 0.597362 0.40263800000000005 0.877613 0.12238700000000002 0.7435 0.25649999999999995 0.746509 0.253491 0.5 0.5 0.5 0.5 0.5 0.5 0.5 0.5 0.5 0.5 0.5 0.5 0.5 0.5 0.5 0.5 0.261226 0.738774 0.320591 0.6794089999999999 0.521631 0.47836900000000004 0.778748 0.221252 0.813704 0.18629600000000002 0.728573 0.271427 0.603854 0.396146 0.515783 0.484217 0.5 0.5 0.5 0.5 0.5 0.5 0.5 0.5 0.5 0.5 0.5 0.5 0.5 0.5 0.5 0.5 0.5 0.5 0.5 0.5 0.5 0.5 0.5 0.5 0.5 0.5 0.5 0.5 0.5 0.5 0.5 0.5 0.5 0.5 0.5 0.5 0.5 0.5 0.5 0.5 0.5 0.5 0.5 0.5 0.5 0.5 0.5 0.5 0.461947 0.538053 0.570734 0.42926600000000004 0.918125 0.08187500000000003 0.0610851 0.9389149 0.990235 0.009765000000000024 0.546951 0.45304900000000004 0.912538 0.08746200000000004 0.939958 0.06004200000000004 0.62863 0.37137 0.548988 0.45101199999999997 0.571506 0.42849400000000004 0.686487 0.31351300000000004 0.244557 0.755443 0.215334 0.784666 0.5 0.5 0.5 0.5 0.5 0.5 0.5 0.5 0.5 0.5 0.5 0.5 0.5 0.5 0.5 0.5 0.879807 0.120193 0.545367 0.45463299999999995 0.592216 0.40778400000000004 0.341754 0.658246 0.5 0.5 0.5 0.5 0.5 0.5 0.5 0.5 0.971595 0.028405000000000014 0.440534 0.559466 0.726108 0.273892 0.600225 0.399775 0.505088 0.494912 0.171731 0.828269 0.676009 0.32399100000000003 0.749645 0.250355 0.5 0.5 0.5 0.5 0.5 0.5 0.5 0.5 0.5 0.5 0.5 0.5 0.5 0.5 0.5 0.5 0.633274 0.366726 0.867389 0.13261100000000003 0.404836 0.595164 0.225491 0.774509 0.5 0.5 0.5 0.5 0.5 0.5 0.5 0.5 0.5 0.5 0.5 0.5 0.5 0.5 0.5 0.5 0.5 0.5 0.5 0.5 0.5 0.5 0.5 0.5 0.5 0.5 0.5 0.5 0.5 0.5 0.5 0.5 0.5 0.5 0.5 0.5 0.00982503 0.99017497 0.55498 0.44501999999999997 0.97428 0.025719999999999965 0.869293 0.13070700000000002 0.5 0.5 0.5 0.5 0.5 0.5 0.5 0.5 0.149577 0.850423 0.662795 0.337205 0.375062 0.624938 0.385984 0.614016 0.5 0.5 0.5 0.5 0.5 0.5 0.5 0.5 0.5 0.5 0.5 0.5 0.5 0.5 0.5 0.5 0.5 0.5 0.5 0.5 0.5 0.5 0.5 0.5 0.461261 0.5387390000000001 0.726459 0.27354100000000003 0.785295 0.21470500000000003 0.330555 0.6694450000000001 0.626965 0.373035 0.604684 0.395316 0.328459 0.6715409999999999 0.677778 0.322222 0.5 0.5 0.5 0.5 0.5 0.5 0.5 0.5 0.5 0.5 0.5 0.5 0.5 0.5 0.5 0.5 0.5 0.5 0.5 0.5 0.5 0.5 0.5 0.5 0.5 0.5 0.5 0.5 0.5 0.5 0.5 0.5 0.929902 0.070098 0.966006 0.03399399999999997 0.540797 0.45920300000000003 0.715197 0.28480300000000003 0.5 0.5 0.5 0.5 0.5 0.5 0.5 0.5 0.5 0.5 0.5 0.5 0.5 0.5 0.5 0.5 0.5 0.5 0.5 0.5 0.0529715 0.9470285 0.00323956 0.99676044 0.557204 0.44279599999999997 0.709307 0.290693 0.5 0.5 0.5 0.5 0.5 0.5 0.5 0.5 0.5 0.5 0.5 0.5 0.5 0.5 0.5 0.5 0.615274 0.384726 0.797705 0.202295 0.258123 0.741877 0.0707838 0.9292162 0.5 0.5 0.5 0.5 0.5 0.5 0.5 0.5 0.5 0.5 0.5 0.5 0.5 0.5 0.5 0.5 0.5 0.5 0.5 0.5 0.5 0.5 0.5 0.5 0.5 0.5 0.5 0.5 0.5 0.5 0.5 0.5 0.5 0.5 0.5 0.5 0.5 0.5 0.5 0.5 0.5 0.5 0.5 0.5 0.5 0.5 0.5 0.5 0.5 0.5 0.5 0.5 0.5 0.5 0.5 0.5 0.5 0.5 0.5 0.5 0.5 0.5 0.5 0.5 0.391504 0.6084959999999999 0.488613 0.511387 0.988518 0.011481999999999992 0.226958 0.773042 0.5 0.5 0.5 0.5 0.5 0.5 0.5 0.5 0.5 0.5 0.5 0.5 0.5 0.5 0.5 0.5 0.5 0.5 0.5 0.5 0.5 0.5 0.5 0.5 0.5 0.5 0.5 0.5 0.5 0.5 0.5 0.5 0.5 0.5 0.5 0.5 0.5 0.5 0.5 0.5 0.5 0.5 0.5 0.5 0.5 0.5 0.5 0.5 0.5 0.5 0.5 0.5 0.621978 0.37802199999999997 0.660287 0.33971300000000004 0.284248 0.7157519999999999 0.0145432 0.9854568 0.5 0.5 0.5 0.5 0.5 0.5 0.5 0.5 0.708001 0.291999 0.0940577 0.9059423 0.832943 0.167057 0.617202 0.38279799999999997 0.5 0.5 0.5 0.5 0.5 0.5 0.5 0.5 0.856796 0.143204 0.562803 0.43719699999999995 0.207762 0.792238 0.188139 0.8118609999999999 0.5 0.5 0.5 0.5 0.5 0.5 0.5 0.5 0.5 0.5 0.5 0.5 0.5 0.5 0.5 0.5 0.333368 0.666632 0.696356 0.303644 0.400074 0.599926 0.0949095 0.9050905 0.5 0.5 0.5 0.5 0.5 0.5 0.5 0.5 0.5 0.5 0.5 0.5 0.5 0.5 0.5 0.5 0.5 0.5 0.5 0.5 0.5 0.5 0.5 0.5 0.5 0.5 0.5 0.5 0.5 0.5 0.5 0.5 0.5 0.5 0.5 0.5 0.5 0.5 0.5 0.5 0.5 0.5 0.5 0.5 0.402378 0.597622 0.266815 0.733185 0.926401 0.07359899999999997 0.591345 0.408655 0.5 0.5 0.5 0.5 0.5 0.5 0.5 0.5 0.5 0.5 0.5 0.5 0.5 0.5 0.5 0.5 0.5 0.5 0.5 0.5 0.5 0.5 0.5 0.5 0.5 0.5 0.5 0.5 0.5 0.5 0.5 0.5 0.5 0.5 0.5 0.5 0.5 0.5 0.5 0.5 0.5 0.5 0.5 0.5 0.5 0.5 0.5 0.5 0.5 0.5 0.5 0.5 0.5 0.5 0.5 0.5 0.5 0.5 0.5 0.5 0.5 0.5 0.5 0.5 0.5 0.5 0.5 0.5 0.5 0.5 0.5 0.5 0.5 0.5 0.5 0.5 0.5 0.5 0.5 0.5 0.5 0.5 0.5 0.5 0.5 0.5 0.5 0.5 0.5 0.5 0.5 0.5 0.0544251 0.9455749 0.794626 0.20537399999999995 0.460867 0.539133 0.28832 0.71168 0.692565 0.307435 0.037089 0.962911 0.86388 0.13612000000000002 0.803625 0.19637499999999997 0.5 0.5 0.5 0.5 0.5 0.5 0.5 0.5 0.5 0.5 0.5 0.5 0.5 0.5 0.5 0.5 0.823386 0.17661400000000005 0.21904 0.78096 0.791165 0.208835 0.215322 0.784678 0.5 0.5 0.5 0.5 0.5 0.5 0.5 0.5 0.5 0.5 0.5 0.5 0.5 0.5 0.5 0.5 0.5 0.5 0.5 0.5 0.5 0.5 0.5 0.5 0.5 0.5 0.5 0.5 0.5 0.5 0.5 0.5 0.5 0.5 0.5 0.5 0.5 0.5 0.5 0.5 0.5 0.5 0.5 0.5 0.5 0.5 0.5 0.5 0.5 0.5 0.5 0.5 0.5 0.5 0.5 0.5 0.5 0.5 0.5 0.5 0.713488 0.286512 0.106459 0.893541 0.325666 0.674334 0.895942 0.10405799999999998 0.60612 0.39388 0.446078 0.553922 0.412885 0.587115 0.792244 0.20775600000000005 0.5 0.5 0.5 0.5 0.5 0.5 0.5 0.5 0.5 0.5 0.5 0.5 0.5 0.5 0.5 0.5 0.5 0.5 0.5 0.5 0.5 0.5 0.5 0.5 0.786429 0.21357099999999996 0.704404 0.29559599999999997 0.0590802 0.9409198 0.354552 0.645448 0.907917 0.09208300000000003 0.0680396 0.9319604 0.934299 0.06570100000000001 0.233583 0.766417 0.887662 0.11233800000000005 0.839702 0.16029800000000005 0.41006 0.58994 0.300547 0.699453 0.5 0.5 0.5 0.5 0.5 0.5 0.5 0.5 0.5 0.5 0.5 0.5 0.5 0.5 0.5 0.5 0.5 0.5 0.5 0.5 0.5 0.5 0.5 0.5 0.5 0.5 0.5 0.5 0.5 0.5 0.5 0.5 0.5 0.5 0.5 0.5 0.5 0.5 0.5 0.5 0.5 0.5 0.5 0.5 0.5 0.5 0.5 0.5 0.5 0.5 0.5 0.5 0.989137 0.010862999999999956 0.515278 0.484722 0.908598 0.09140199999999998 0.0821398 0.9178602 0.701893 0.298107 0.129848 0.870152 0.346403 0.653597 0.764093 0.23590699999999998 0.5 0.5 0.5 0.5 0.5 0.5 0.5 0.5 0.5 0.5 0.5 0.5 0.5 0.5 0.5 0.5 0.847954 0.15204600000000001 0.839736 0.16026399999999996 0.527638 0.47236199999999995 0.0473267 0.9526733000000001 0.5 0.5 0.5 0.5 0.5 0.5 0.5 0.5 0.5 0.5 0.5 0.5 0.5 0.5 0.5 0.5 0.5 0.5 0.5 0.5 0.5 0.5 0.5 0.5 0.5 0.5 0.5 0.5 0.5 0.5 0.5 0.5 0.287877 0.7121230000000001 0.718445 0.281555 0.23572 0.76428 0.0681524 0.9318476 0.5 0.5 0.5 0.5 0.5 0.5 0.5 0.5 0.5 0.5 0.5 0.5 0.5 0.5 0.5 0.5 0.5 0.5 0.5 0.5 0.5 0.5 0.5 0.5 0.5 0.5 0.5 0.5 0.5 0.5 0.5 0.5 0.5 0.5 0.5 0.5 0.5 0.5 0.5 0.5 0.5 0.5 0.5 0.5 0.370145 0.629855 0.376272 0.6237280000000001 0.922795 0.07720499999999997 0.936544 0.06345599999999996 0.5 0.5 0.5 0.5 0.5 0.5 0.5 0.5 0.5 0.5 0.5 0.5 0.5 0.5 0.5 0.5 0.5 0.5 0.5 0.5 0.5 0.5 0.5 0.5 0.759906 0.24009400000000003 0.131281 0.868719 0.391168 0.608832 0.197299 0.802701 0.5 0.5 0.5 0.5 0.5 0.5 0.5 0.5 0.5 0.5 0.5 0.5 0.5 0.5 0.5 0.5 0.414292 0.585708 0.269855 0.730145 0.369324 0.630676 0.117043 0.882957 0.5 0.5 0.5 0.5 0.5 0.5 0.5 0.5 0.5 0.5 0.5 0.5 0.5 0.5 0.5 0.5 0.603217 0.396783 0.477275 0.522725 0.0158119 0.9841881 0.994385 0.005615000000000037 0.5 0.5 0.5 0.5 0.5 0.5 0.5 0.5
-1 -226 2 0
-1 226 -2 0
1 -227 2 0
1 227 -2 0
-2 3 0
2 -3 0
-3 4 0
3 -4 0
-4 5 0
4 -5 0
-5 -6 0
5 6 0
-6 -236 7 0
-6 236 -7 0
6 -237 7 0
6 237 -7 0
-7 8 0
7 -8 0
-8 9 0
8 -9 0
-9 -10 0
9 10 0
-10 -11 0
10 11 0
-11 12 0
11 -12 0
-12 -13 0
12 13 0
-13 14 0
13 -14 0
-14 -15 0
14 15 0
-1 -254 16 0
-1 254 -16 0
1 -255 16 0
1 255 -16 0
-16 -2 -17 0
-16 2 -17 0
16 -2 17 0
16 2 17 0
-17 -3 -18 0
-17 3 18 0
17 -3 18 0
17 3 18 0
-18 -4 19 0
-18 4 -19 0
18 -4 -19 0
18 4 19 0
-19 -5 -20 0
-19 5 20 0
19 -5 20 0
19 5 20 0
-20 -6 21 0
-20 6 -21 0
20 -6 -21 0
20 6 -21 0
-21 -7 -22 0
-21 7 22 0
21 -7 -22 0
21 7 22 0
-22 -8 -23 0
-22 8 23 0
22 -8 -23 0
22 8 -23 0
-23 -9 -24 0
-23 9 24 0
23 -9 24 0
23 9 -24 0
-24 -10 -25 0
-24 10 -25 0
24 -10 -25 0
24 10 25 0
-25 -11 26 0
-25 11 -26 0
25 -11 26 0
25 11 26 0
-26 -12 -27 0
-26 12 27 0
26 -12 -27 0
26 12 27 0
-27 -13 28 0
-27 13 -28 0
27 -13 -28 0
27 13 -28 0
-28 -14 -304 29 0
-28 -14 304 -29 0
-28 14 -305 29 0
-28 14 305 -29 0
28 -14 -306 29 0
28 -14 306 -29 0
28 14 -307 29 0
28 14 307 -29 0
-29 -15 -30 0
-29 15 -30 0
29 -15 30 0
29 15 -30 0
-16 31 0
16 -31 0
-31 -17 -314 32 0
-31 -17 314 -32 0
-31 17 -315 32 0
-31 17 315 -32 0
31 -17 -316 32 0
31 -17 316 -32 0
31 17 -317 32 0
31 17 317 -32 0
-32 -18 -33 0
-32 18 -33 0
32 -18 33 0
32 18 -33 0
-33 -19 -322 34 0
-33 -19 322 -34 0
-33 19 -323 34 0
-33 19 323 -34 0
33 -19 -324 34 0
33 -19 324 -34 0
33 19 -325 34 0
33 19 325 -34 0
-34 -20 -35 0
-34 20 -35 0
34 -20 35 0
34 20 35 0
-35 -21 36 0
-35 21 -36 0
35 -21 -36 0
35 21 36 0
-36 -22 -334 37 0
-36 -22 334 -37 0
-36 22 -335 37 0
-36 22 335 -37 0
36 -22 -336 37 0
36 -22 336 -37 0
36 22 -337 37 0
36 22 337 -37 0
-37 -23 38 0
-37 23 38 0
37 -23 -38 0
37 23 -38 0
-38 -24 -39 0
-38 24 -39 0
38 -24 39 0
38 24 39 0
-39 -25 40 0
-39 25 -40 0
39 -25 -40 0
39 25 40 0
-40 -26 -41 0
-40 26 41 0
40 -26 -41 0
40 26 41 0
-41 -27 42 0
-41 27 -42 0
41 -27 42 0
41 27 42 0
-42 -28 -43 0
-42 28 43 0
42 -28 43 0
42 28 -43 0
-43 -29 -44 0
-43 29 -44 0
43 -29 44 0
43 29 -44 0
-44 -30 45 0
-44 30 45 0
44 -30 -45 0
44 30 -45 0
-31 46 0
31 -46 0
-46 -32 -47 0
-46 32 -47 0
46 -32 -47 0
46 32 47 0
-47 -33 -376 48 0
-47 -33 376 -48 0
-47 33 -377 48 0
-47 33 377 -48 0
47 -33 -378 48 0
47 -33 378 -48 0
47 33 -379 48 0
47 33 379 -48 0
-48 -34 49 0
-48 34 49 0
48 -34 -49 0
48 34 -49 0
-49 -35 -50 0
-49 35 50 0
49 -35 50 0
49 35 50 0
-50 -36 51 0
-50 36 51 0
50 -36 -51 0
50 36 -51 0
-51 -37 -52 0
-51 37 52 0
51 -37 -52 0
51 37 -52 0
-52 -38 -53 0
-52 38 53 0
52 -38 53 0
52 38 53 0
-53 -39 -54 0
-53 39 -54 0
53 -39 -54 0
53 39 54 0
-54 -40 -404 55 0
-54 -40 404 -55 0
-54 40 -405 55 0
-54 40 405 -55 0
54 -40 -406 55 0
54 -40 406 -55 0
54 40 -407 55 0
54 40 407 -55 0
-55 -41 56 0
-55 41 -56 0
55 -41 56 0
55 41 -56 0
-56 -42 -57 0
-56 42 57 0
56 -42 -57 0
56 42 57 0
-57 -43 -416 58 0
-57 -43 416 -58 0
-57 43 -417 58 0
-57 43 417 -58 0
57 -43 -418 58 0
57 -43 418 -58 0
57 43 -419 58 0
57 43 419 -58 0
-58 -44 -59 0
-58 44 59 0
58 -44 -59 0
58 44 59 0
-59 -45 -60 0
-59 45 -60 0
59 -45 60 0
59 45 -60 0
-46 -61 0
46 61 0
-61 -47 -430 62 0
-61 -47 430 -62 0
-61 47 -431 62 0
-61 47 431 -62 0
61 -47 -432 62 0
61 -47 432 -62 0
61 47 -433 62 0
61 47 433 -62 0
-62 -48 63 0
-62 48 63 0
62 -48 -63 0
62 48 63 0
-63 -49 -438 64 0
-63 -49 438 -64 0
-63 49 -439 64 0
-63 49 439 -64 0
63 -49 -440 64 0
63 -49 440 -64 0
63 49 -441 64 0
63 49 441 -64 0
-64 -50 65 0
-64 50 -65 0
64 -50 -65 0
64 50 -65 0
-65 -51 -66 0
-65 51 66 0
65 -51 -66 0
65 51 -66 0
-66 -52 67 0
-66 52 67 0
66 -52 -67 0
66 52 -67 0
-67 -53 -454 68 0
-67 -53 454 -68 0
-67 53 -455 68 0
-67 53 455 -68 0
67 -53 -456 68 0
67 -53 456 -68 0
67 53 -457 68 0
67 53 457 -68 0
-68 -54 -69 0
-68 54 -69 0
68 -54 -69 0
68 54 69 0
-69 -55 70 0
-69 55 -70 0
69 -55 70 0
69 55 70 0
-70 -56 -466 71 0
-70 -56 466 -71 0
-70 56 -467 71 0
-70 56 467 -71 0
70 -56 -468 71 0
70 -56 468 -71 0
70 56 -469 71 0
70 56 469 -71 0
-71 -57 -470 72 0
-71 -57 470 -72 0
-71 57 -471 72 0
-71 57 471 -72 0
71 -57 -472 72 0
71 -57 472 -72 0
71 57 -473 72 0
71 57 473 -72 0
-72 -58 -474 73 0
-72 -58 474 -73 0
-72 58 -475 73 0
-72 58 475 -73 0
72 -58 -476 73 0
72 -58 476 -73 0
72 58 -477 73 0
72 58 477 -73 0
-73 -59 74 0
-73 59 74 0
73 -59 -74 0
73 59 -74 0
-74 -60 -75 0
-74 60 75 0
74 -60 -75 0
74 60 -75 0
-61 76 0
61 -76 0
-76 -62 -77 0
-76 62 -77 0
76 -62 77 0
76 62 -77 0
-77 -63 -492 78 0
-77 -63 492 -78 0
-77 63 -493 78 0
-77 63 493 -78 0
77 -63 -494 78 0
77 -63 494 -78 0
77 63 -495 78 0
77 63 495 -78 0
-78 -64 79 0
-78 64 -79 0
78 -64 -79 0
78 64 79 0
-79 -65 80 0
-79 65 80 0
79 -65 80 0
79 65 -80 0
-80 -66 -504 81 0
-80 -66 504 -81 0
-80 66 -505 81 0
-80 66 505 -81 0
80 -66 -506 81 0
80 -66 506 -81 0
80 66 -507 81 0
80 66 507 -81 0
-81 -67 -508 82 0
-81 -67 508 -82 0
-81 67 -509 82 0
-81 67 509 -82 0
81 -67 -510 82 0
81 -67 510 -82 0
81 67 -511 82 0
81 67 511 -82 0
-82 -68 83 0
-82 68 83 0
82 -68 -83 0
82 68 -83 0
-83 -69 84 0
-83 69 -84 0
83 -69 84 0
83 69 -84 0
-84 -70 85 0
-84 70 85 0
84 -70 -85 0
84 70 85 0
-85 -71 -86 0
-85 71 -86 0
85 -71 86 0
85 71 86 0
-86 -72 87 0
-86 72 -87 0
86 -72 -87 0
86 72 87 0
-87 -73 88 0
-87 73 88 0
87 -73 -88 0
87 73 -88 0
-88 -74 -536 89 0
-88 -74 536 -89 0
-88 74 -537 89 0
-88 74 537 -89 0
88 -74 -538 89 0
88 -74 538 -89 0
88 74 -539 89 0
88 74 539 -89 0
-89 -75 -540 90 0
-89 -75 540 -90 0
-89 75 -541 90 0
-89 75 541 -90 0
89 -75 -542 90 0
89 -75 542 -90 0
89 75 -543 90 0
89 75 543 -90 0
-76 -544 91 0
-76 544 -91 0
76 -545 91 0
76 545 -91 0
-91 -77 -546 92 0
-91 -77 546 -92 0
-91 77 -547 92 0
-91 77 547 -92 0
91 -77 -548 92 0
91 -77 548 -92 0
91 77 -549 92 0
91 77 549 -92 0
-92 -78 93 0
-92 78 -93 0
92 -78 -93 0
92 78 93 0
-93 -79 -94 0
-93 79 -94 0
93 -79 94 0
93 79 94 0
-94 -80 -558 95 0
-94 -80 558 -95 0
-94 80 -559 95 0
-94 80 559 -95 0
94 -80 -560 95 0
94 -80 560 -95 0
94 80 -561 95 0
94 80 561 -95 0
-95 -81 -96 0
-95 81 96 0
95 -81 96 0
95 81 -96 0
-96 -82 -566 97 0
-96 -82 566 -97 0
-96 82 -567 97 0
-96 82 567 -97 0
96 -82 -568 97 0
96 -82 568 -97 0
96 82 -569 97 0
96 82 569 -97 0
-97 -83 -570 98 0
-97 -83 570 -98 0
-97 83 -571 98 0
-97 83 571 -98 0
97 -83 -572 98 0
97 -83 572 -98 0
97 83 -573 98 0
97 83 573 -98 0
-98 -84 -99 0
-98 84 -99 0
98 -84 99 0
98 84 -99 0
-99 -85 100 0
-99 85 -100 0
99 -85 100 0
99 85 -100 0
-100 -86 -582 101 0
-100 -86 582 -101 0
-100 86 -583 101 0
-100 86 583 -101 0
100 -86 -584 101 0
100 -86 584 -101 0
100 86 -585 101 0
100 86 585 -101 0
-101 -87 102 0
-101 87 -102 0
101 -87 -102 0
101 87 -102 0
-102 -88 103 0
-102 88 103 0
102 -88 -103 0
102 88 -103 0
-103 -89 104 0
-103 89 -104 0
103 -89 104 0
103 89 104 0
-104 -90 105 0
-104 90 105 0
104 -90 105 0
104 90 -105 0
-91 -106 0
91 106 0
-106 -92 -604 107 0
-106 -92 604 -107 0
-106 92 -605 107 0
-106 92 605 -107 0
106 -92 -606 107 0
106 -92 606 -107 0
106 92 -607 107 0
106 92 607 -107 0
-107 -93 -108 0
-107 93 -108 0
107 -93 108 0
107 93 -108 0
-108 -94 -612 109 0
-108 -94 612 -109 0
-108 94 -613 109 0
-108 94 613 -109 0
108 -94 -614 109 0
108 -94 614 -109 0
108 94 -615 109 0
108 94 615 -109 0
-109 -95 -110 0
-109 95 -110 0
109 -95 110 0
109 95 110 0
-110 -96 -111 0
-110 96 -111 0
110 -96 -111 0
110 96 111 0
-111 -97 -112 0
-111 97 -112 0
111 -97 112 0
111 97 -112 0
-112 -98 -628 113 0
-112 -98 628 -113 0
-112 98 -629 113 0
-112 98 629 -113 0
112 -98 -630 113 0
112 -98 630 -113 0
112 98 -631 113 0
112 98 631 -113 0
-113 -99 -632 114 0
-113 -99 632 -114 0
-113 99 -633 114 0
-113 99 633 -114 0
113 -99 -634 114 0
113 -99 634 -114 0
113 99 -635 114 0
113 99 635 -114 0
-114 -100 -115 0
-114 100 115 0
114 -100 -115 0
114 100 -115 0
-115 -101 -116 0
-115 101 -116 0
115 -101 -116 0
115 101 116 0
-116 -102 -117 0
-116 102 117 0
116 -102 -117 0
116 102 117 0
-117 -103 -118 0
-117 103 118 0
117 -103 118 0
117 103 -118 0
-118 -104 -652 119 0
-118 -104 652 -119 0
-118 104 -653 119 0
-118 104 653 -119 0
118 -104 -654 119 0
118 -104 654 -119 0
118 104 -655 119 0
118 104 655 -119 0
-119 -105 120 0
-119 105 -120 0
119 -105 120 0
119 105 120 0
-106 -121 0
106 121 0
-121 -107 -122 0
-121 107 -122 0
121 -107 122 0
121 107 122 0
-122 -108 -666 123 0
-122 -108 666 -123 0
-122 108 -667 123 0
-122 108 667 -123 0
122 -108 -668 123 0
122 -108 668 -123 0
122 108 -669 123 0
122 108 669 -123 0
-123 -109 124 0
-123 109 124 0
123 -109 -124 0
123 109 -124 0
-124 -110 125 0
-124 110 125 0
124 -110 -125 0
124 110 125 0
-125 -111 -678 126 0
-125 -111 678 -126 0
-125 111 -679 126 0
-125 111 679 -126 0
125 -111 -680 126 0
125 -111 680 -126 0
125 111 -681 126 0
125 111 681 -126 0
-126 -112 127 0
-126 112 -127 0
126 -112 -127 0
126 112 -127 0
-127 -113 128 0
-127 113 128 0
127 -113 -128 0
127 113 128 0
-128 -114 -129 0
-128 114 129 0
128 -114 -129 0
128 114 129 0
-129 -115 130 0
-129 115 130 0
129 -115 -130 0
129 115 -130 0
-130 -116 -131 0
-130 116 131 0
130 -116 131 0
130 116 131 0
-131 -117 -132 0
-131 117 132 0
131 -117 132 0
131 117 -132 0
-132 -118 133 0
-132 118 -133 0
132 -118 -133 0
132 118 133 0
-133 -119 134 0
-133 119 134 0
133 -119 -134 0
133 119 -134 0
-134 -120 -714 135 0
-134 -120 714 -135 0
-134 120 -715 135 0
-134 120 715 -135 0
134 -120 -716 135 0
134 -120 716 -135 0
134 120 -717 135 0
134 120 717 -135 0
-121 136 0
121 -136 0
-136 -122 137 0
-136 122 137 0
136 -122 137 0
136 122 -137 0
-137 -123 -138 0
-137 123 138 0
137 -123 -138 0
137 123 -138 0
-138 -124 -139 0
-138 124 139 0
138 -124 -139 0
138 124 139 0
-139 -125 -140 0
-139 125 140 0
139 -125 -140 0
139 125 -140 0
-140 -126 141 0
-140 126 -141 0
140 -126 141 0
140 126 141 0
-141 -127 -142 0
-141 127 142 0
141 -127 -142 0
141 127 -142 0
-142 -128 -744 143 0
-142 -128 744 -143 0
-142 128 -745 143 0
-142 128 745 -143 0
142 -128 -746 143 0
142 -128 746 -143 0
142 128 -747 143 0
142 128 747 -143 0
-143 -129 144 0
-143 129 -144 0
143 -129 144 0
143 129 144 0
-144 -130 -752 145 0
-144 -130 752 -145 0
-144 130 -753 145 0
-144 130 753 -145 0
144 -130 -754 145 0
144 -130 754 -145 0
144 130 -755 145 0
144 130 755 -145 0
-145 -131 146 0
-145 131 -146 0
145 -131 -146 0
145 131 146 0
-146 -132 -760 147 0
-146 -132 760 -147 0
-146 132 -761 147 0
-146 132 761 -147 0
146 -132 -762 147 0
146 -132 762 -147 0
146 132 -763 147 0
146 132 763 -147 0
-147 -133 148 0
-147 133 -148 0
147 -133 -148 0
147 133 -148 0
-148 -134 149 0
-148 134 -149 0
148 -134 149 0
148 134 -149 0
-149 -135 -772 150 0
-149 -135 772 -150 0
-149 135 -773 150 0
-149 135 773 -150 0
149 -135 -774 150 0
149 -135 774 -150 0
149 135 -775 150 0
149 135 775 -150 0
-136 151 0
136 -151 0
-151 -137 152 0
-151 137 -152 0
151 -137 -152 0
151 137 152 0
-152 -138 153 0
-152 138 -153 0
152 -138 -153 0
152 138 -153 0
-153 -139 -154 0
-153 139 -154 0
153 -139 -154 0
153 139 154 0
-154 -140 -155 0
-154 140 155 0
154 -140 155 0
154 140 155 0
-155 -141 156 0
-155 141 -156 0
155 -141 156 0
155 141 156 0
-156 -142 -798 157 0
-156 -142 798 -157 0
-156 142 -799 157 0
-156 142 799 -157 0
156 -142 -800 157 0
156 -142 800 -157 0
156 142 -801 157 0
156 142 801 -157 0
-157 -143 -158 0
-157 143 158 0
157 -143 -158 0
157 143 -158 0
-158 -144 159 0
-158 144 159 0
158 -144 -159 0
158 144 -159 0
-159 -145 -160 0
-159 145 -160 0
159 -145 -160 0
159 145 160 0
-160 -146 -161 0
-160 146 -161 0
160 -146 161 0
160 146 -161 0
-161 -147 -162 0
-161 147 162 0
161 -147 -162 0
161 147 162 0
-162 -148 -163 0
-162 148 163 0
162 -148 163 0
162 148 -163 0
-163 -149 -164 0
-163 149 -164 0
163 -149 164 0
163 149 164 0
-164 -150 -165 0
-164 150 -165 0
164 -150 165 0
164 150 -165 0
-151 166 0
151 -166 0
-166 -152 -167 0
-166 152 167 0
166 -152 -167 0
166 152 -167 0
-167 -153 -168 0
-167 153 168 0
167 -153 -168 0
167 153 168 0
-168 -154 169 0
-168 154 169 0
168 -154 -169 0
168 154 -169 0
-169 -155 -848 170 0
-169 -155 848 -170 0
-169 155 -849 170 0
-169 155 849 -170 0
169 -155 -850 170 0
169 -155 850 -170 0
169 155 -851 170 0
169 155 851 -170 0
-170 -156 -852 171 0
-170 -156 852 -171 0
-170 156 -853 171 0
-170 156 853 -171 0
170 -156 -854 171 0
170 -156 854 -171 0
170 156 -855 171 0
170 156 855 -171 0
-171 -157 172 0
-171 157 172 0
171 -157 -172 0
171 157 172 0
-172 -158 173 0
-172 158 -173 0
172 -158 -173 0
172 158 173 0
-173 -159 -864 174 0
-173 -159 864 -174 0
-173 159 -865 174 0
-173 159 865 -174 0
173 -159 -866 174 0
173 -159 866 -174 0
173 159 -867 174 0
173 159 867 -174 0
-174 -160 175 0
-174 160 -175 0
174 -160 -175 0
174 160 175 0
-175 -161 176 0
-175 161 176 0
175 -161 176 0
175 161 -176 0
-176 -162 -177 0
-176 162 -177 0
176 -162 177 0
176 162 177 0
-177 -163 -178 0
-177 163 -178 0
177 -163 -178 0
177 163 178 0
-178 -164 -179 0
-178 164 179 0
178 -164 179 0
178 164 179 0
-179 -165 180 0
-179 165 -180 0
179 -165 180 0
179 165 180 0
-166 -181 0
166 181 0
-181 -167 -182 0
-181 167 -182 0
181 -167 -182 0
181 167 182 0
-182 -168 -898 183 0
-182 -168 898 -183 0
-182 168 -899 183 0
-182 168 899 -183 0
182 -168 -900 183 0
182 -168 900 -183 0
182 168 -901 183 0
182 168 901 -183 0
-183 -169 -902 184 0
-183 -169 902 -184 0
-183 169 -903 184 0
-183 169 903 -184 0
183 -169 -904 184 0
183 -169 904 -184 0
183 169 -905 184 0
183 169 905 -184 0
-184 -170 185 0
-184 170 185 0
184 -170 -185 0
184 170 185 0
-185 -171 186 0
-185 171 -186 0
185 -171 -186 0
185 171 186 0
-186 -172 -187 0
-186 172 187 0
186 -172 -187 0
186 172 187 0
-187 -173 -918 188 0
-187 -173 918 -188 0
-187 173 -919 188 0
-187 173 919 -188 0
187 -173 -920 188 0
187 -173 920 -188 0
187 173 -921 188 0
187 173 921 -188 0
-188 -174 -922 189 0
-188 -174 922 -189 0
-188 174 -923 189 0
-188 174 923 -189 0
188 -174 -924 189 0
188 -174 924 -189 0
188 174 -925 189 0
188 174 925 -189 0
-189 -175 -926 190 0
-189 -175 926 -190 0
-189 175 -927 190 0
-189 175 927 -190 0
189 -175 -928 190 0
189 -175 928 -190 0
189 175 -929 190 0
189 175 929 -190 0
-190 -176 -191 0
-190 176 191 0
190 -176 191 0
190 176 -191 0
-191 -177 192 0
-191 177 -192 0
191 -177 -192 0
191 177 -192 0
-192 -178 193 0
-192 178 -193 0
192 -178 -193 0
192 178 -193 0
-193 -179 -194 0
-193 179 -194 0
193 -179 -194 0
193 179 194 0
-194 -180 195 0
-194 180 195 0
194 -180 -195 0
194 180 -195 0
-181 -196 0
181 196 0
-196 -182 -197 0
-196 182 197 0
196 -182 -197 0
196 182 197 0
-197 -183 -956 198 0
-197 -183 956 -198 0
-197 183 -957 198 0
-197 183 957 -198 0
197 -183 -958 198 0
197 -183 958 -198 0
197 183 -959 198 0
197 183 959 -198 0
-198 -184 -960 199 0
-198 -184 960 -199 0
-198 184 -961 199 0
-198 184 961 -199 0
198 -184 -962 199 0
198 -184 962 -199 0
198 184 -963 199 0
198 184 963 -199 0
-199 -185 200 0
-199 185 -200 0
199 -185 -200 0
199 185 200 0
-200 -186 201 0
-200 186 201 0
200 -186 -201 0
200 186 -201 0
-201 -187 -972 202 0
-201 -187 972 -202 0
-201 187 -973 202 0
-201 187 973 -202 0
201 -187 -974 202 0
201 -187 974 -202 0
201 187 -975 202 0
201 187 975 -202 0
-202 -188 203 0
-202 188 203 0
202 -188 203 0
202 188 -203 0
-203 -189 -204 0
-203 189 204 0
203 -189 -204 0
203 189 204 0
-204 -190 -205 0
-204 190 205 0
204 -190 -205 0
204 190 -205 0
-205 -191 206 0
-205 191 206 0
205 -191 -206 0
205 191 206 0
-206 -192 -992 207 0
-206 -192 992 -207 0
-206 192 -993 207 0
-206 192 993 -207 0
206 -192 -994 207 0
206 -192 994 -207 0
206 192 -995 207 0
206 192 995 -207 0
-207 -193 -208 0
-207 193 -208 0
207 -193 -208 0
207 193 208 0
-208 -194 -209 0
-208 194 -209 0
208 -194 209 0
208 194 209 0
-209 -195 210 0
-209 195 -210 0
209 -195 -210 0
209 195 210 0
-196 -211 0
196 211 0
-211 -197 212 0
-211 197 212 0
211 -197 -212 0
211 197 -212 0
-212 -198 213 0
-212 198 -213 0
212 -198 213 0
212 198 -213 0
-213 -199 -1018 214 0
-213 -199 1018 -214 0
-213 199 -1019 214 0
-213 199 1019 -214 0
213 -199 -1020 214 0
213 -199 1020 -214 0
213 199 -1021 214 0
213 199 1021 -214 0
-214 -200 215 0
-214 200 -215 0
214 -200 -215 0
214 200 215 0
-215 -201 -216 0
-215 201 -216 0
215 -201 216 0
215 201 216 0
-216 -202 217 0
-216 202 217 0
216 -202 -217 0
216 202 217 0
-217 -203 -1034 218 0
-217 -203 1034 -218 0
-217 203 -1035 218 0
-217 203 1035 -218 0
217 -203 -1036 218 0
217 -203 1036 -218 0
217 203 -1037 218 0
217 203 1037 -218 0
-218 -204 219 0
-218 204 219 0
218 -204 219 0
218 204 -219 0
-219 -205 220 0
-219 205 220 0
219 -205 220 0
219 205 -220 0
-220 -206 -1046 221 0
-220 -206 1046 -221 0
-220 206 -1047 221 0
-220 206 1047 -221 0
220 -206 -1048 221 0
220 -206 1048 -221 0
220 206 -1049 221 0
220 206 1049 -221 0
-221 -207 -222 0
-221 207 222 0
221 -207 -222 0
221 207 -222 0
-222 -208 -223 0
-222 208 223 0
222 -208 223 0
222 208 -223 0
-223 -209 -1058 224 0
-223 -209 1058 -224 0
-223 209 -1059 224 0
-223 209 1059 -224 0
223 -209 -1060 224 0
223 -209 1060 -224 0
223 209 -1061 224 0
223 209 1061 -224 0
-224 -210 -225 0
-224 210 225 0
224 -210 -225 0
224 210 225 0
225 0
