data/benchmarks/bayes/75-15-7-q.gr
p tw 1065 1256
166 181
198 213
192 993
8 9
40 41
199 214
122 668
36 336
224 1061
41 42
189 923
168 900
73 74
82 568
74 75
106 107
120 716
7 21
209 1059
107 108
77 494
40 54
140 141
99 634
73 87
173 174
75 542
183 898
206 207
207 208
139 153
172 186
205 220
199 963
173 187
206 220
89 538
213 1019
113 114
2 17
189 926
146 147
47 433
3 18
74 536
35 50
179 180
36 51
106 604
68 83
174 924
107 605
69 84
101 116
144 752
171 855
113 127
213 214
206 992
102 117
146 160
147 762
40 407
67 510
135 150
179 193
62 431
168 183
43 417
188 921
10 11
19 325
113 634
43 44
57 473
76 77
9 24
89 541
27 41
42 57
60 74
55 404
75 90
98 631
74 539
108 123
34 323
71 470
106 607
109 124
203 1034
77 549
2 226
47 377
142 157
53 457
72 470
48 378
16 17
175 190
112 628
193 207
61 433
88 536
49 50
208 223
6 237
50 51
82 83
188 924
83 84
115 116
34 48
199 1018
116 117
67 81
175 926
167 168
54 407
49 63
149 150
63 492
100 114
200 201
81 509
82 96
182 183
57 417
133 147
115 129
184 903
215 216
33 325
122 137
58 418
192 992
71 473
167 181
122 667
224 1060
168 899
200 214
82 567
206 1047
120 715
112 631
209 1058
77 493
88 539
11 26
217 1034
99 633
91 549
44 59
75 541
67 457
199 1021
96 111
175 929
129 144
92 607
162 177
144 159
195 210
130 755
18 19
177 192
213 1018
192 995
210 225
189 925
214 1018
3 17
103 104
190 926
85 86
36 50
136 137
209 1061
118 119
174 923
107 604
69 83
169 170
151 152
102 116
145 752
202 203
182 899
207 992
103 117
40 406
135 149
183 900
220 1047
134 715
168 182
97 567
17 315
73 475
169 183
25 26
113 633
1 226
202 216
57 472
9 23
202 975
89 540
213 1021
114 633
90 541
31 46
98 630
32 47
74 538
176 177
65 80
106 606
109 123
209 210
191 192
98 113
107 607
144 754
142 156
224 225
131 146
48 377
175 189
164 179
61 432
176 190
208 222
6 7
62 433
197 212
209 223
43 419
39 40
188 923
72 73
5 19
38 53
22 337
54 406
6 20
71 86
39 53
55 406
104 119
184 902
31 314
58 417
72 86
105 120
137 152
34 325
71 472
138 153
203 1036
12 13
171 186
198 957
47 379
72 472
13 14
206 1046
204 219
112 630
46 47
94 612
78 79
88 538
79 80
11 25
12 26
112 113
44 58
1 16
49 438
45 59
145 146
199 1020
111 678
175 928
78 92
178 179
170 849
111 125
211 212
81 511
57 419
112 126
212 213
144 158
66 504
145 159
177 191
192 994
122 669
178 192
36 337
210 224
168 901
82 569
101 582
83 570
206 1049
120 717
7 22
209 1060
77 495
8 23
40 55
184 185
217 1036
99 635
41 56
73 88
75 543
74 89
183 899
106 121
220 1046
107 122
97 566
139 154
221 1047
108 612
17 314
73 474
140 155
172 187
135 714
184 198
14 15
173 188
47 48
206 221
63 438
213 1020
114 632
48 49
80 81
90 540
81 82
189 927
14 28
114 115
47 61
147 148
174 925
107 606
144 753
80 94
113 128
206 993
145 754
181 182
182 901
146 161
214 215
179 194
220 1049
134 717
62 432
21 22
97 569
147 161
180 195
17 317
73 477
223 1059
54 55
113 635
87 88
184 960
88 89
58 475
89 542
114 635
21 35
121 122
153 154
10 25
55 405
54 68
154 155
105 119
43 58
87 101
187 188
32 314
76 91
120 134
220 221
198 956
72 471
153 167
48 379
108 667
188 925
16 31
49 64
170 848
63 493
82 97
83 98
115 130
184 904
58 419
116 131
167 182
96 567
149 164
142 799
200 215
80 558
23 24
182 197
56 466
206 1048
24 25
56 57
57 58
89 90
183 957
8 22
159 865
217 1035
92 546
41 55
141 142
23 37
123 124
74 88
174 175
49 440
56 70
218 1035
156 157
107 121
221 1046
89 103
189 190
170 851
140 154
109 612
222 223
141 155
66 506
174 188
155 849
207 221
63 64
214 1019
101 584
190 927
83 572
18 33
130 131
86 582
163 164
145 753
182 900
207 993
94 558
196 197
103 118
183 901
70 466
220 1048
134 716
14 305
136 151
97 568
180 194
221 1049
118 133
17 316
73 476
169 184
223 1058
135 716
151 166
1 227
202 217
63 440
58 474
114 634
77 78
90 542
10 24
110 111
189 929
25 40
43 57
143 144
77 91
144 755
169 848
206 995
110 124
17 18
143 157
176 191
209 224
108 666
100 582
223 1061
84 85
5 20
17 31
184 962
117 118
58 477
6 21
28 305
50 64
187 972
39 54
55 407
83 97
183 184
31 315
72 87
84 98
116 130
216 217
32 316
198 199
96 566
117 131
149 163
203 1037
142 798
198 958
150 164
182 196
72 473
183 197
94 613
7 236
156 853
183 956
132 761
159 864
108 669
12 27
13 28
49 439
45 60
218 1034
111 679
46 61
173 919
78 93
170 850
63 495
82 508
79 94
111 126
112 127
66 505
128 745
145 160
155 848
104 653
123 666
37 334
19 20
96 569
178 193
20 21
52 53
101 583
80 560
169 903
56 468
201 972
53 54
83 571
78 492
86 87
18 32
19 33
119 120
217 1037
52 66
152 153
85 99
185 186
95 558
218 1037
14 304
71 466
76 544
186 187
108 613
118 132
218 219
221 1048
170 853
119 133
135 715
219 220
146 761
184 199
152 166
63 439
59 60
155 851
185 199
125 679
187 919
92 93
189 928
64 439
25 39
214 1021
125 126
190 929
14 29
16 255
158 159
15 30
47 62
59 73
142 745
159 160
80 504
86 584
48 63
80 95
92 106
192 193
206 994
118 652
145 755
81 96
125 139
207 995
94 560
114 129
183 903
70 468
158 172
14 307
147 162
97 570
191 205
223 1060
22 23
184 961
55 56
58 476
89 543
28 304
21 36
29 305
54 69
87 102
32 315
88 103
120 135
121 136
153 168
154 169
28 29
156 852
187 202
132 760
29 30
61 62
108 668
100 584
62 63
94 95
13 27
95 96
127 128
173 918
28 42
128 129
160 161
63 494
79 93
28 307
161 162
187 974
184 905
94 108
194 195
31 317
128 744
127 141
104 652
96 568
160 174
142 800
198 960
80 559
72 475
169 902
56 467
113 629
94 615
33 376
183 958
159 866
92 547
134 135
23 38
135 773
49 441
68 454
56 71
218 1036
111 681
57 72
89 104
170 852
201 202
109 613
90 105
146 760
171 853
134 148
141 156
123 138
66 507
174 189
128 747
155 850
156 171
67 508
125 678
104 655
37 336
207 222
187 918
189 204
64 438
188 919
214 1020
31 32
101 585
126 678
190 928
169 905
201 974
83 573
16 254
64 65
15 29
78 494
142 744
97 98
86 583
48 62
148 149
30 44
63 78
81 504
81 95
143 744
207 994
94 559
119 652
156 799
114 128
183 902
70 467
95 560
14 306
71 468
108 615
148 162
98 570
135 717
4 5
197 957
37 38
173 865
196 211
149 773
63 441
70 71
125 681
90 543
29 304
91 544
155 156
137 138
88 102
188 189
142 747
170 171
80 506
77 92
221 222
169 849
203 204
110 125
154 168
143 158
155 169
183 905
187 201
188 202
97 572
100 583
51 52
17 32
184 963
28 306
50 65
187 973
29 307
31 316
51 65
84 99
32 317
117 132
198 959
150 165
72 474
199 960
113 628
92 605
183 198
94 614
7 237
156 854
58 59
132 762
91 92
135 772
24 38
47 430
124 125
111 680
173 920
57 71
157 158
139 140
82 509
58 72
90 104
190 191
171 852
172 173
123 137
223 224
128 746
124 138
40 404
156 170
104 654
123 667
37 335
157 171
189 203
188 918
198 962
80 561
190 204
19 322
72 477
169 904
56 469
201 973
113 631
78 493
57 470
33 378
202 973
19 34
63 77
92 549
20 35
52 67
98 628
156 798
135 775
53 68
85 100
68 456
95 559
157 799
71 467
86 101
76 545
108 614
130 144
170 854
77 546
109 615
119 134
146 762
163 177
53 454
197 956
152 167
173 864
149 772
26 27
185 200
174 865
61 430
125 680
150 773
27 28
186 201
187 920
64 440
126 680
93 94
26 40
126 127
59 74
142 746
22 335
54 404
80 505
86 585
92 107
81 506
118 653
143 746
125 140
94 561
119 654
33 322
156 801
183 904
70 469
93 107
193 194
158 173
97 571
126 140
159 174
191 206
98 572
33 34
192 207
197 959
34 35
66 67
173 867
149 775
67 68
99 100
100 101
132 133
29 306
33 47
91 546
133 134
67 454
22 37
66 80
166 167
55 70
99 113
199 200
169 851
132 146
92 604
165 179
130 752
198 212
199 213
36 335
100 585
189 922
28 43
29 44
61 76
187 975
205 206
62 77
94 109
95 110
127 142
128 143
160 175
142 801
198 961
2 3
161 176
72 476
205 219
199 962
113 630
3 4
35 36
194 209
36 37
33 377
68 69
183 959
202 972
89 537
159 867
69 70
101 102
92 548
20 34
2 16
102 103
135 774
53 67
68 455
47 432
35 49
157 798
86 100
68 82
168 169
82 511
109 614
101 115
171 854
134 149
147 761
174 864
9 10
67 509
123 669
150 772
37 337
186 200
62 430
42 43
201 216
43 416
188 920
126 679
19 324
201 975
108 109
78 495
22 334
109 110
30 45
81 505
42 56
142 143
143 745
75 89
119 653
175 176
156 800
64 79
95 561
108 122
34 322
208 209
157 801
71 469
159 173
97 112
148 163
98 571
77 548
192 206
47 376
53 456
197 958
181 196
173 866
149 774
5 6
174 867
6 236
150 775
91 545
4 19
22 36
122 123
37 52
55 69
70 85
80 507
169 850
81 508
118 655
57 416
1 255
33 324
122 136
155 170
188 203
97 573
11 12
122 666
36 334
170 185
224 1059
168 898
82 566
44 45
203 218
120 714
96 97
77 492
29 43
129 130
111 112
99 632
62 76
162 163
91 548
75 540
144 145
51 66
67 456
95 109
177 178
96 110
128 142
129 143
161 175
199 961
92 606
162 176
194 208
195 209
130 754
156 855
89 536
132 763
189 924
24 39
47 431
173 921
82 510
174 922
58 73
91 106
182 898
217 218
147 760
124 139
40 405
123 668
134 714
157 172
201 215
198 963
190 205
19 323
32 33
113 632
57 471
65 66
33 379
202 974
89 539
98 99
131 132
98 629
32 46
68 457
64 78
164 165
74 537
157 800
65 79
97 111
106 605
130 145
197 198
170 855
77 547
98 112
146 763
163 178
53 455
131 145
48 376
147 763
38 39
61 431
174 866
164 178
67 511
150 774
187 921
71 72
197 211
64 441
43 418
188 922
4 18
104 105
126 681
37 51
26 41
38 52
138 139
22 336
70 84
54 405
27 42
71 85
171 172
81 507
118 654
60 75
143 747
104 118
204 205
119 655
1 254
33 323
58 416
93 108
137 151
34 324
71 471
126 141
138 152
170 184
224 1058
203 1035
98 573
171 185
2 227
203 217
47 378
1 2
204 218
112 629
193 208
88 537
33 48
91 547
67 455
34 49
66 81
199 1019
67 82
175 927
99 114
100 115
132 147
81 510
57 418
133 148
165 180
130 753
7 8
